c nvars nclauses
p cnf 14 36

c index of the variables >> [p0,q0,r0,s0,x0,p1,q1,r1,s1,x1,p2,q2,r2,s2]
c                           [ 1, 2, 3, 4, 5, 6, 7, 8, 9,10,11,12,13,14]

c Initial state

c clause1 IS0 : p0
1 0

c clause2 IS1 : q0
2 0

c clause3 IS2 : r0
3 0

c clause4 IS3 : s0
4 0

c Final state

c clause5 FS0 : ~p2
-11 0

c clause6 FS1 : ~q2
-12 0

c clause7 FS2 : ~r2
-13 0

c clause8 FS3 : ~s2
-14 0

c---------------N = 1-----------------

c clause9 : ~p1 + ~x0 + ~p0 + s0
-6 -5 -1 4 0

c clause10 : ~p1 + ~x0 + p0 + ~s0
-6 -5 1 -4 0

c clause11 : ~p1 + x0 + ~p0 + ~s0
-6 5 -1 -4 0

c clause12 : ~p1 + x0 + p0 + s0
-6 5 1 4 0

c clause13 : p1 + ~x0 + ~p0 + ~s0
6 -5 -1 -4 0

c clause14 : p1 + ~x0 + p0 + s0
6 -5 1 4 0

c clause15 : p1 + x0 + ~p0 + s0
6 5 -1 4 0

c clause16 : p1 + x0 + p0 + ~s0
6 5 1 -4 0

c clause17 : ~p0 + q1
-1 7 0

c clause18 : p0 + ~q1
1 -7 0

c clause19 : ~q0 + r1
-2 8 0

c clause20 : q0 + ~r1
2 -8 0

c clause21 : ~r0 + s1
-3 9 0

c clause22 : r0 + ~s1
3 -9 0

c---------------N = 2-----------------

c clause23 : ~p2 + ~x1 + ~p1 + s1
-11 -10 -6 9 0

c clause24 : ~p2 + ~x1 + p1 + ~s1
-11 -10 6 -9 0

c clause25 : ~p2 + x1 + ~p1 + ~s1
-11 10 -6 -9 0

c clause26 : ~p2 + x1 + p1 + s1
-11 10 6 9 0

c clause27 : p2 + ~x1 + ~p1 + ~s1
11 -10 -6 -9 0

c clause28 : p2 + ~x1 + p1 + s1
11 -10 6 9 0

c clause29 : p2 + x1 + ~p1 + s1
11 10 -6 9 0

c clause30 : p2 + x1 + p1 + ~s1
11 10 6 -9 0

c clause31 : ~p1 + q2
-6 12 0

c clause32 : p1 + ~q2
6 -12 0

c clause33 : ~q1 + r2
-7 13 0

c clause34 : q1 + ~r2
7 -13 0

c clause35 : ~r1 + s2
-8 14 0

c clause36 : r1 + ~s2
8 -14 0

